p cnf 959 2460
51 -692 -1 0
-51 692 0
-51 1 0
52 -51 -3 0
-52 51 0
-52 3 0
53 -4 -2 0
-53 4 0
-53 2 0
54 -53 -693 0
-54 53 0
-54 693 0
55 -694 -695 0
-55 694 0
-55 695 0
56 -696 -697 0
-56 696 0
-56 697 0
57 -56 -692 0
-57 56 0
-57 692 0
58 -698 -55 0
-58 698 0
-58 55 0
59 -699 -8 0
-59 699 0
-59 8 0
60 -59 -700 0
-60 59 0
-60 700 0
61 -701 -58 0
-61 701 0
-61 58 0
62 -702 -703 0
-62 702 0
-62 703 0
63 -62 -692 0
-63 62 0
-63 692 0
64 -704 -61 0
-64 704 0
-64 61 0
65 -13 -705 0
-65 13 0
-65 705 0
66 -65 -14 0
-66 65 0
-66 14 0
67 -706 -64 0
-67 706 0
-67 64 0
68 -15 -702 0
-68 15 0
-68 702 0
69 -68 -16 0
-69 68 0
-69 16 0
70 -707 -67 0
-70 707 0
-70 67 0
71 -18 -17 0
-71 18 0
-71 17 0
72 -71 -708 0
-72 71 0
-72 708 0
73 -709 -70 0
-73 709 0
-73 70 0
74 -710 -711 0
-74 710 0
-74 711 0
75 -74 -19 0
-75 74 0
-75 19 0
76 -712 -73 0
-76 712 0
-76 73 0
77 -23 -22 0
-77 23 0
-77 22 0
78 -77 -713 0
-78 77 0
-78 713 0
79 -714 -76 0
-79 714 0
-79 76 0
80 -25 -24 0
-80 25 0
-80 24 0
81 -80 -5 0
-81 80 0
-81 5 0
82 -715 -79 0
-82 715 0
-82 79 0
83 -716 -697 0
-83 716 0
-83 697 0
84 -83 -27 0
-84 83 0
-84 27 0
85 -717 -82 0
-85 717 0
-85 82 0
86 -29 -28 0
-86 29 0
-86 28 0
87 -86 -14 0
-87 86 0
-87 14 0
88 -718 -85 0
-88 718 0
-88 85 0
89 -22 -719 0
-89 22 0
-89 719 0
90 -89 -720 0
-90 89 0
-90 720 0
91 -721 -88 0
-91 721 0
-91 88 0
92 -722 -8 0
-92 722 0
-92 8 0
93 -92 -723 0
-93 92 0
-93 723 0
94 -724 -91 0
-94 724 0
-94 91 0
95 -32 -24 0
-95 32 0
-95 24 0
96 -95 -725 0
-96 95 0
-96 725 0
97 -726 -94 0
-97 726 0
-97 94 0
98 -29 -727 0
-98 29 0
-98 727 0
99 -98 -16 0
-99 98 0
-99 16 0
100 -728 -97 0
-100 728 0
-100 97 0
101 -34 -729 0
-101 34 0
-101 729 0
102 -101 -730 0
-102 101 0
-102 730 0
103 -731 -100 0
-103 731 0
-103 100 0
104 -732 -733 0
-104 732 0
-104 733 0
105 -104 -734 0
-105 104 0
-105 734 0
106 -735 -103 0
-106 735 0
-106 103 0
107 -37 -32 0
-107 37 0
-107 32 0
108 -107 -2 0
-108 107 0
-108 2 0
109 -736 -106 0
-109 736 0
-109 106 0
110 -737 -36 0
-110 737 0
-110 36 0
111 -110 -16 0
-111 110 0
-111 16 0
112 -738 -109 0
-112 738 0
-112 109 0
113 -739 -11 0
-113 739 0
-113 11 0
114 -113 -40 0
-114 113 0
-114 40 0
115 -740 -112 0
-115 740 0
-115 112 0
116 -741 -696 0
-116 741 0
-116 696 0
117 -116 -42 0
-117 116 0
-117 42 0
118 -742 -115 0
-118 742 0
-118 115 0
119 -37 -711 0
-119 37 0
-119 711 0
120 -119 -3 0
-120 119 0
-120 3 0
121 -743 -118 0
-121 743 0
-121 118 0
122 -744 -725 0
-122 744 0
-122 725 0
123 -122 -36 0
-123 122 0
-123 36 0
124 -745 -121 0
-124 745 0
-124 121 0
125 -746 -747 0
-125 746 0
-125 747 0
126 -125 -16 0
-126 125 0
-126 16 0
127 -748 -124 0
-127 748 0
-127 124 0
128 -42 -723 0
-128 42 0
-128 723 0
129 -128 -21 0
-129 128 0
-129 21 0
130 -749 -127 0
-130 749 0
-130 127 0
131 -737 -35 0
-131 737 0
-131 35 0
132 -131 -44 0
-132 131 0
-132 44 0
133 -750 -130 0
-133 750 0
-133 130 0
134 -741 -737 0
-134 741 0
-134 737 0
135 -134 -42 0
-135 134 0
-135 42 0
136 -751 -133 0
-136 751 0
-136 133 0
137 -46 -26 0
-137 46 0
-137 26 0
138 -137 -10 0
-138 137 0
-138 10 0
139 -752 -136 0
-139 752 0
-139 136 0
140 -33 -22 0
-140 33 0
-140 22 0
141 -140 -744 0
-141 140 0
-141 744 0
142 -753 -139 0
-142 753 0
-142 139 0
143 -32 -711 0
-143 32 0
-143 711 0
144 -143 -734 0
-144 143 0
-144 734 0
145 -754 -142 0
-145 754 0
-145 142 0
146 -755 -696 0
-146 755 0
-146 696 0
147 -146 -22 0
-147 146 0
-147 22 0
148 -756 -145 0
-148 756 0
-148 145 0
149 -710 -14 0
-149 710 0
-149 14 0
150 -149 -10 0
-150 149 0
-150 10 0
151 -757 -148 0
-151 757 0
-151 148 0
152 -720 -702 0
-152 720 0
-152 702 0
153 -152 -3 0
-153 152 0
-153 3 0
154 -758 -151 0
-154 758 0
-154 151 0
155 -716 -755 0
-155 716 0
-155 755 0
156 -155 -18 0
-156 155 0
-156 18 0
157 -759 -154 0
-157 759 0
-157 154 0
158 -725 -28 0
-158 725 0
-158 28 0
159 -158 -744 0
-159 158 0
-159 744 0
160 -760 -157 0
-160 760 0
-160 157 0
161 -24 -17 0
-161 24 0
-161 17 0
162 -161 -23 0
-162 161 0
-162 23 0
163 -761 -160 0
-163 761 0
-163 160 0
164 -747 -36 0
-164 747 0
-164 36 0
165 -164 -5 0
-165 164 0
-165 5 0
166 -762 -163 0
-166 762 0
-166 163 0
167 -763 -11 0
-167 763 0
-167 11 0
168 -167 -693 0
-168 167 0
-168 693 0
169 -764 -166 0
-169 764 0
-169 166 0
170 -765 -6 0
-170 765 0
-170 6 0
171 -170 -47 0
-171 170 0
-171 47 0
172 -766 -169 0
-172 766 0
-172 169 0
173 -767 -703 0
-173 767 0
-173 703 0
174 -173 -692 0
-174 173 0
-174 692 0
175 -768 -172 0
-175 768 0
-175 172 0
176 -769 -35 0
-176 769 0
-176 35 0
177 -176 -21 0
-177 176 0
-177 21 0
178 -770 -175 0
-178 770 0
-178 175 0
179 -763 -13 0
-179 763 0
-179 13 0
180 -179 -21 0
-180 179 0
-180 21 0
181 -771 -178 0
-181 771 0
-181 178 0
182 -34 -772 0
-182 34 0
-182 772 0
183 -182 -47 0
-183 182 0
-183 47 0
184 -773 -181 0
-184 773 0
-184 181 0
185 -48 -774 0
-185 48 0
-185 774 0
186 -185 -775 0
-186 185 0
-186 775 0
187 -776 -184 0
-187 776 0
-187 184 0
188 -31 -25 0
-188 31 0
-188 25 0
189 -188 -777 0
-189 188 0
-189 777 0
190 -778 -187 0
-190 778 0
-190 187 0
191 -723 -693 0
-191 723 0
-191 693 0
192 -191 -16 0
-192 191 0
-192 16 0
193 -779 -190 0
-193 779 0
-193 190 0
194 -763 -693 0
-194 763 0
-194 693 0
195 -194 -19 0
-195 194 0
-195 19 0
196 -780 -193 0
-196 780 0
-196 193 0
197 -40 -781 0
-197 40 0
-197 781 0
198 -197 -45 0
-198 197 0
-198 45 0
199 -782 -196 0
-199 782 0
-199 196 0
200 -783 -697 0
-200 783 0
-200 697 0
201 -200 -746 0
-201 200 0
-201 746 0
202 -784 -199 0
-202 784 0
-202 199 0
203 -785 -716 0
-203 785 0
-203 716 0
204 -203 -27 0
-204 203 0
-204 27 0
205 -786 -202 0
-205 786 0
-205 202 0
206 -46 -733 0
-206 46 0
-206 733 0
207 -206 -14 0
-207 206 0
-207 14 0
208 -787 -205 0
-208 787 0
-208 205 0
209 -739 -702 0
-209 739 0
-209 702 0
210 -209 -700 0
-210 209 0
-210 700 0
211 -788 -208 0
-211 788 0
-211 208 0
212 -32 -7 0
-212 32 0
-212 7 0
213 -212 -16 0
-213 212 0
-213 16 0
214 -789 -211 0
-214 789 0
-214 211 0
215 -43 -772 0
-215 43 0
-215 772 0
216 -215 -16 0
-216 215 0
-216 16 0
217 -790 -214 0
-217 790 0
-217 214 0
218 -35 -719 0
-218 35 0
-218 719 0
219 -218 -791 0
-219 218 0
-219 791 0
220 -792 -217 0
-220 792 0
-220 217 0
221 -38 -702 0
-221 38 0
-221 702 0
222 -221 -16 0
-222 221 0
-222 16 0
223 -793 -220 0
-223 793 0
-223 220 0
224 -42 -38 0
-224 42 0
-224 38 0
225 -224 -4 0
-225 224 0
-225 4 0
226 -794 -223 0
-226 794 0
-226 223 0
227 -30 -733 0
-227 30 0
-227 733 0
228 -227 -720 0
-228 227 0
-228 720 0
229 -795 -226 0
-229 795 0
-229 226 0
230 -737 -27 0
-230 737 0
-230 27 0
231 -230 -713 0
-231 230 0
-231 713 0
232 -796 -229 0
-232 796 0
-232 229 0
233 -775 -747 0
-233 775 0
-233 747 0
234 -233 -14 0
-234 233 0
-234 14 0
235 -797 -232 0
-235 797 0
-235 232 0
236 -711 -5 0
-236 711 0
-236 5 0
237 -236 -10 0
-237 236 0
-237 10 0
238 -798 -235 0
-238 798 0
-238 235 0
239 -44 -733 0
-239 44 0
-239 733 0
240 -239 -710 0
-240 239 0
-240 710 0
241 -799 -238 0
-241 799 0
-241 238 0
242 -734 -791 0
-242 734 0
-242 791 0
243 -242 -693 0
-243 242 0
-243 693 0
244 -800 -241 0
-244 800 0
-244 241 0
245 -699 -7 0
-245 699 0
-245 7 0
246 -245 -705 0
-246 245 0
-246 705 0
247 -801 -244 0
-247 801 0
-247 244 0
248 -802 -8 0
-248 802 0
-248 8 0
249 -248 -711 0
-249 248 0
-249 711 0
250 -803 -247 0
-250 803 0
-250 247 0
251 -32 -27 0
-251 32 0
-251 27 0
252 -251 -734 0
-252 251 0
-252 734 0
253 -804 -250 0
-253 804 0
-253 250 0
254 -38 -774 0
-254 38 0
-254 774 0
255 -254 -716 0
-255 254 0
-255 716 0
256 -805 -253 0
-256 805 0
-256 253 0
257 -725 -20 0
-257 725 0
-257 20 0
258 -257 -37 0
-258 257 0
-258 37 0
259 -806 -256 0
-259 806 0
-259 256 0
260 -31 -719 0
-260 31 0
-260 719 0
261 -260 -47 0
-261 260 0
-261 47 0
262 -807 -259 0
-262 807 0
-262 259 0
263 -29 -3 0
-263 29 0
-263 3 0
264 -263 -19 0
-264 263 0
-264 19 0
265 -808 -262 0
-265 808 0
-265 262 0
266 -725 -716 0
-266 725 0
-266 716 0
267 -266 -42 0
-267 266 0
-267 42 0
268 -809 -265 0
-268 809 0
-268 265 0
269 -92 -49 0
-269 92 0
-269 49 0
270 -810 -268 0
-270 810 0
-270 268 0
271 -26 -17 0
-271 26 0
-271 17 0
272 -271 -703 0
-272 271 0
-272 703 0
273 -811 -270 0
-273 811 0
-273 270 0
274 -763 -729 0
-274 763 0
-274 729 0
275 -274 -739 0
-275 274 0
-275 739 0
276 -812 -273 0
-276 812 0
-276 273 0
277 -48 -6 0
-277 48 0
-277 6 0
278 -277 -42 0
-278 277 0
-278 42 0
279 -813 -276 0
-279 813 0
-279 276 0
280 -33 -696 0
-280 33 0
-280 696 0
281 -280 -713 0
-281 280 0
-281 713 0
282 -814 -279 0
-282 814 0
-282 279 0
283 -741 -32 0
-283 741 0
-283 32 0
284 -283 -34 0
-284 283 0
-284 34 0
285 -815 -282 0
-285 815 0
-285 282 0
286 -25 -15 0
-286 25 0
-286 15 0
287 -286 -36 0
-287 286 0
-287 36 0
288 -816 -285 0
-288 816 0
-288 285 0
289 -755 -703 0
-289 755 0
-289 703 0
290 -289 -708 0
-290 289 0
-290 708 0
291 -817 -288 0
-291 817 0
-291 288 0
292 -35 -31 0
-292 35 0
-292 31 0
293 -292 -734 0
-293 292 0
-293 734 0
294 -818 -291 0
-294 818 0
-294 291 0
295 -765 -9 0
-295 765 0
-295 9 0
296 -295 -700 0
-296 295 0
-296 700 0
297 -819 -294 0
-297 819 0
-297 294 0
298 -733 -697 0
-298 733 0
-298 697 0
299 -298 -43 0
-299 298 0
-299 43 0
300 -820 -297 0
-300 820 0
-300 297 0
301 -86 -699 0
-301 86 0
-301 699 0
302 -821 -300 0
-302 821 0
-302 300 0
303 -46 -783 0
-303 46 0
-303 783 0
304 -303 -746 0
-304 303 0
-304 746 0
305 -822 -302 0
-305 822 0
-305 302 0
306 -739 -723 0
-306 739 0
-306 723 0
307 -306 -44 0
-307 306 0
-307 44 0
308 -823 -305 0
-308 823 0
-308 305 0
309 -722 -733 0
-309 722 0
-309 733 0
310 -309 -18 0
-310 309 0
-310 18 0
311 -824 -308 0
-311 824 0
-311 308 0
312 -34 -24 0
-312 34 0
-312 24 0
313 -312 -46 0
-313 312 0
-313 46 0
314 -825 -311 0
-314 825 0
-314 311 0
315 -826 -730 0
-315 826 0
-315 730 0
316 -315 -693 0
-316 315 0
-316 693 0
317 -827 -314 0
-317 827 0
-317 314 0
318 -722 -17 0
-318 722 0
-318 17 0
319 -318 -50 0
-319 318 0
-319 50 0
320 -828 -317 0
-320 828 0
-320 317 0
321 -48 -29 0
-321 48 0
-321 29 0
322 -321 -747 0
-322 321 0
-322 747 0
323 -829 -320 0
-323 829 0
-323 320 0
324 -732 -18 0
-324 732 0
-324 18 0
325 -324 -710 0
-325 324 0
-325 710 0
326 -830 -323 0
-326 830 0
-326 323 0
327 -41 -725 0
-327 41 0
-327 725 0
328 -327 -831 0
-328 327 0
-328 831 0
329 -832 -326 0
-329 832 0
-329 326 0
330 -47 -38 0
-330 47 0
-330 38 0
331 -330 -713 0
-331 330 0
-331 713 0
332 -833 -329 0
-332 833 0
-332 329 0
333 -182 -831 0
-333 182 0
-333 831 0
334 -834 -332 0
-334 834 0
-334 332 0
335 -775 -26 0
-335 775 0
-335 26 0
336 -335 -47 0
-336 335 0
-336 47 0
337 -835 -334 0
-337 835 0
-337 334 0
338 -28 -696 0
-338 28 0
-338 696 0
339 -338 -705 0
-339 338 0
-339 705 0
340 -836 -337 0
-340 836 0
-340 337 0
341 -37 -11 0
-341 37 0
-341 11 0
342 -341 -35 0
-342 341 0
-342 35 0
343 -837 -340 0
-343 837 0
-343 340 0
344 -838 -716 0
-344 838 0
-344 716 0
345 -344 -2 0
-345 344 0
-345 2 0
346 -839 -343 0
-346 839 0
-346 343 0
347 -723 -28 0
-347 723 0
-347 28 0
348 -347 -840 0
-348 347 0
-348 840 0
349 -841 -346 0
-349 841 0
-349 346 0
350 -48 -26 0
-350 48 0
-350 26 0
351 -350 -831 0
-351 350 0
-351 831 0
352 -842 -349 0
-352 842 0
-352 349 0
353 -42 -26 0
-353 42 0
-353 26 0
354 -353 -739 0
-354 353 0
-354 739 0
355 -843 -352 0
-355 843 0
-355 352 0
356 -56 -705 0
-356 56 0
-356 705 0
357 -844 -355 0
-357 844 0
-357 355 0
358 -838 -33 0
-358 838 0
-358 33 0
359 -358 -19 0
-359 358 0
-359 19 0
360 -845 -357 0
-360 845 0
-360 357 0
361 -19 -699 0
-361 19 0
-361 699 0
362 -361 -777 0
-362 361 0
-362 777 0
363 -846 -360 0
-363 846 0
-363 360 0
364 -12 -7 0
-364 12 0
-364 7 0
365 -364 -16 0
-365 364 0
-365 16 0
366 -847 -363 0
-366 847 0
-366 363 0
367 -28 -703 0
-367 28 0
-367 703 0
368 -367 -5 0
-368 367 0
-368 5 0
369 -848 -366 0
-369 848 0
-369 366 0
370 -746 -20 0
-370 746 0
-370 20 0
371 -370 -777 0
-371 370 0
-371 777 0
372 -849 -369 0
-372 849 0
-372 369 0
373 -185 -730 0
-373 185 0
-373 730 0
374 -850 -372 0
-374 850 0
-374 372 0
375 -44 -34 0
-375 44 0
-375 34 0
376 -375 -14 0
-376 375 0
-376 14 0
377 -851 -374 0
-377 851 0
-377 374 0
378 -725 -719 0
-378 725 0
-378 719 0
379 -378 -19 0
-379 378 0
-379 19 0
380 -852 -377 0
-380 852 0
-380 377 0
381 -28 -719 0
-381 28 0
-381 719 0
382 -381 -781 0
-382 381 0
-382 781 0
383 -853 -380 0
-383 853 0
-383 380 0
384 -35 -727 0
-384 35 0
-384 727 0
385 -384 -39 0
-385 384 0
-385 39 0
386 -854 -383 0
-386 854 0
-386 383 0
387 -33 -727 0
-387 33 0
-387 727 0
388 -387 -39 0
-388 387 0
-388 39 0
389 -855 -386 0
-389 855 0
-389 386 0
390 -741 -733 0
-390 741 0
-390 733 0
391 -390 -19 0
-391 390 0
-391 19 0
392 -856 -389 0
-392 856 0
-392 389 0
393 -716 -4 0
-393 716 0
-393 4 0
394 -393 -772 0
-394 393 0
-394 772 0
395 -857 -392 0
-395 857 0
-395 392 0
396 -765 -692 0
-396 765 0
-396 692 0
397 -396 -700 0
-397 396 0
-397 700 0
398 -858 -395 0
-398 858 0
-398 395 0
399 -29 -767 0
-399 29 0
-399 767 0
400 -399 -5 0
-400 399 0
-400 5 0
401 -859 -398 0
-401 859 0
-401 398 0
402 -722 -696 0
-402 722 0
-402 696 0
403 -402 -42 0
-403 402 0
-403 42 0
404 -860 -401 0
-404 860 0
-404 401 0
405 -732 -20 0
-405 732 0
-405 20 0
406 -405 -831 0
-406 405 0
-406 831 0
407 -861 -404 0
-407 861 0
-407 404 0
408 -741 -20 0
-408 741 0
-408 20 0
409 -408 -13 0
-409 408 0
-409 13 0
410 -862 -407 0
-410 862 0
-410 407 0
411 -725 -783 0
-411 725 0
-411 783 0
412 -411 -27 0
-412 411 0
-412 27 0
413 -863 -410 0
-413 863 0
-413 410 0
414 -39 -697 0
-414 39 0
-414 697 0
415 -414 -747 0
-415 414 0
-415 747 0
416 -864 -413 0
-416 864 0
-416 413 0
417 -364 -40 0
-417 364 0
-417 40 0
418 -865 -416 0
-418 865 0
-418 416 0
419 -722 -28 0
-419 722 0
-419 28 0
420 -419 -43 0
-420 419 0
-420 43 0
421 -866 -418 0
-421 866 0
-421 418 0
422 -785 -8 0
-422 785 0
-422 8 0
423 -422 -710 0
-423 422 0
-423 710 0
424 -867 -421 0
-424 867 0
-424 421 0
425 -15 -1 0
-425 15 0
-425 1 0
426 -425 -12 0
-426 425 0
-426 12 0
427 -868 -424 0
-427 868 0
-427 424 0
428 -869 -2 0
-428 869 0
-428 2 0
429 -428 -739 0
-429 428 0
-429 739 0
430 -870 -427 0
-430 870 0
-430 427 0
431 -44 -24 0
-431 44 0
-431 24 0
432 -431 -45 0
-432 431 0
-432 45 0
433 -871 -430 0
-433 871 0
-433 430 0
434 -703 -719 0
-434 703 0
-434 719 0
435 -434 -739 0
-435 434 0
-435 739 0
436 -872 -433 0
-436 872 0
-436 433 0
437 -838 -28 0
-437 838 0
-437 28 0
438 -437 -733 0
-438 437 0
-438 733 0
439 -873 -436 0
-439 873 0
-439 436 0
440 -838 -13 0
-440 838 0
-440 13 0
441 -440 -840 0
-441 440 0
-441 840 0
442 -874 -439 0
-442 874 0
-442 439 0
443 -32 -12 0
-443 32 0
-443 12 0
444 -443 -772 0
-444 443 0
-444 772 0
445 -875 -442 0
-445 875 0
-445 442 0
446 -869 -8 0
-446 869 0
-446 8 0
447 -446 -733 0
-447 446 0
-447 733 0
448 -876 -445 0
-448 876 0
-448 445 0
449 -737 -693 0
-449 737 0
-449 693 0
450 -449 -700 0
-450 449 0
-450 700 0
451 -877 -448 0
-451 877 0
-451 448 0
452 -37 -732 0
-452 37 0
-452 732 0
453 -452 -708 0
-453 452 0
-453 708 0
454 -878 -451 0
-454 878 0
-454 451 0
455 -37 -791 0
-455 37 0
-455 791 0
456 -455 -746 0
-456 455 0
-456 746 0
457 -879 -454 0
-457 879 0
-457 454 0
458 -765 -719 0
-458 765 0
-458 719 0
459 -458 -840 0
-459 458 0
-459 840 0
460 -880 -457 0
-460 880 0
-460 457 0
461 -31 -24 0
-461 31 0
-461 24 0
462 -461 -693 0
-462 461 0
-462 693 0
463 -881 -460 0
-463 881 0
-463 460 0
464 -33 -720 0
-464 33 0
-464 720 0
465 -464 -36 0
-465 464 0
-465 36 0
466 -882 -463 0
-466 882 0
-466 463 0
467 -869 -6 0
-467 869 0
-467 6 0
468 -467 -746 0
-468 467 0
-468 746 0
469 -883 -466 0
-469 883 0
-469 466 0
470 -730 -8 0
-470 730 0
-470 8 0
471 -470 -734 0
-471 470 0
-471 734 0
472 -884 -469 0
-472 884 0
-472 469 0
473 -48 -34 0
-473 48 0
-473 34 0
474 -473 -2 0
-474 473 0
-474 2 0
475 -885 -472 0
-475 885 0
-475 472 0
476 -30 -23 0
-476 30 0
-476 23 0
477 -476 -791 0
-477 476 0
-477 791 0
478 -886 -475 0
-478 886 0
-478 475 0
479 -775 -838 0
-479 775 0
-479 838 0
480 -479 -4 0
-480 479 0
-480 4 0
481 -887 -478 0
-481 887 0
-481 478 0
482 -711 -4 0
-482 711 0
-482 4 0
483 -482 -40 0
-483 482 0
-483 40 0
484 -888 -481 0
-484 888 0
-484 481 0
485 -46 -716 0
-485 46 0
-485 716 0
486 -485 -22 0
-486 485 0
-486 22 0
487 -889 -484 0
-487 889 0
-487 484 0
488 -31 -6 0
-488 31 0
-488 6 0
489 -488 -781 0
-489 488 0
-489 781 0
490 -890 -487 0
-490 890 0
-490 487 0
491 -783 -772 0
-491 783 0
-491 772 0
492 -491 -23 0
-492 491 0
-492 23 0
493 -891 -490 0
-493 891 0
-493 490 0
494 -28 -767 0
-494 28 0
-494 767 0
495 -494 -719 0
-495 494 0
-495 719 0
496 -892 -493 0
-496 892 0
-496 493 0
497 -31 -711 0
-497 31 0
-497 711 0
498 -497 -27 0
-498 497 0
-498 27 0
499 -893 -496 0
-499 893 0
-499 496 0
500 -869 -716 0
-500 869 0
-500 716 0
501 -500 -39 0
-501 500 0
-501 39 0
502 -894 -499 0
-502 894 0
-502 499 0
503 -734 -19 0
-503 734 0
-503 19 0
504 -503 -777 0
-504 503 0
-504 777 0
505 -895 -502 0
-505 895 0
-505 502 0
506 -29 -697 0
-506 29 0
-506 697 0
507 -506 -696 0
-507 506 0
-507 696 0
508 -896 -505 0
-508 896 0
-508 505 0
509 -775 -729 0
-509 775 0
-509 729 0
510 -509 -826 0
-510 509 0
-510 826 0
511 -897 -508 0
-511 897 0
-511 508 0
512 -741 -700 0
-512 741 0
-512 700 0
513 -512 -16 0
-513 512 0
-513 16 0
514 -898 -511 0
-514 898 0
-514 511 0
515 -725 -17 0
-515 725 0
-515 17 0
516 -515 -22 0
-516 515 0
-516 22 0
517 -899 -514 0
-517 899 0
-517 514 0
518 -33 -2 0
-518 33 0
-518 2 0
519 -518 -36 0
-519 518 0
-519 36 0
520 -900 -517 0
-520 900 0
-520 517 0
521 -802 -4 0
-521 802 0
-521 4 0
522 -521 -730 0
-522 521 0
-522 730 0
523 -901 -520 0
-523 901 0
-523 520 0
524 -775 -732 0
-524 775 0
-524 732 0
525 -524 -3 0
-525 524 0
-525 3 0
526 -902 -523 0
-526 902 0
-526 523 0
527 -767 -699 0
-527 767 0
-527 699 0
528 -527 -725 0
-528 527 0
-528 725 0
529 -903 -526 0
-529 903 0
-529 526 0
530 -375 -826 0
-530 375 0
-530 826 0
531 -904 -529 0
-531 904 0
-531 529 0
532 -710 -6 0
-532 710 0
-532 6 0
533 -532 -40 0
-533 532 0
-533 40 0
534 -905 -531 0
-534 905 0
-534 531 0
535 -23 -755 0
-535 23 0
-535 755 0
536 -535 -700 0
-536 535 0
-536 700 0
537 -906 -534 0
-537 906 0
-537 534 0
538 -15 -13 0
-538 15 0
-538 13 0
539 -538 -746 0
-539 538 0
-539 746 0
540 -907 -537 0
-540 907 0
-540 537 0
541 -26 -6 0
-541 26 0
-541 6 0
542 -541 -21 0
-542 541 0
-542 21 0
543 -908 -540 0
-543 908 0
-543 540 0
544 -28 -6 0
-544 28 0
-544 6 0
545 -544 -711 0
-545 544 0
-545 711 0
546 -909 -543 0
-546 909 0
-546 543 0
547 -24 -719 0
-547 24 0
-547 719 0
548 -547 -21 0
-548 547 0
-548 21 0
549 -910 -546 0
-549 910 0
-549 546 0
550 -702 -719 0
-550 702 0
-550 719 0
551 -550 -713 0
-551 550 0
-551 713 0
552 -911 -549 0
-552 911 0
-552 549 0
553 -722 -2 0
-553 722 0
-553 2 0
554 -553 -39 0
-554 553 0
-554 39 0
555 -912 -552 0
-555 912 0
-555 552 0
556 -35 -826 0
-556 35 0
-556 826 0
557 -556 -40 0
-557 556 0
-557 40 0
558 -913 -555 0
-558 913 0
-558 555 0
559 -387 -769 0
-559 387 0
-559 769 0
560 -914 -558 0
-560 914 0
-560 558 0
561 -34 -802 0
-561 34 0
-561 802 0
562 -561 -19 0
-562 561 0
-562 19 0
563 -915 -560 0
-563 915 0
-563 560 0
564 -32 -693 0
-564 32 0
-564 693 0
565 -564 -700 0
-565 564 0
-565 700 0
566 -916 -563 0
-566 916 0
-566 563 0
567 -732 -767 0
-567 732 0
-567 767 0
568 -567 -791 0
-568 567 0
-568 791 0
569 -917 -566 0
-569 917 0
-569 566 0
570 -29 -1 0
-570 29 0
-570 1 0
571 -570 -16 0
-571 570 0
-571 16 0
572 -918 -569 0
-572 918 0
-572 569 0
573 -802 -22 0
-573 802 0
-573 22 0
574 -573 -14 0
-574 573 0
-574 14 0
575 -919 -572 0
-575 919 0
-575 572 0
576 -28 -9 0
-576 28 0
-576 9 0
577 -576 -27 0
-577 576 0
-577 27 0
578 -920 -575 0
-578 920 0
-578 575 0
579 -13 -4 0
-579 13 0
-579 4 0
580 -579 -732 0
-580 579 0
-580 732 0
581 -921 -578 0
-581 921 0
-581 578 0
582 -26 -1 0
-582 26 0
-582 1 0
583 -582 -18 0
-583 582 0
-583 18 0
584 -922 -581 0
-584 922 0
-584 581 0
585 -732 -34 0
-585 732 0
-585 34 0
586 -585 -739 0
-586 585 0
-586 739 0
587 -923 -584 0
-587 923 0
-587 584 0
588 -437 -769 0
-588 437 0
-588 769 0
589 -924 -587 0
-589 924 0
-589 587 0
590 -763 -26 0
-590 763 0
-590 26 0
591 -590 -702 0
-591 590 0
-591 702 0
592 -925 -589 0
-592 925 0
-592 589 0
593 -744 -2 0
-593 744 0
-593 2 0
594 -593 -739 0
-594 593 0
-594 739 0
595 -926 -592 0
-595 926 0
-595 592 0
596 -32 -705 0
-596 32 0
-596 705 0
597 -596 -19 0
-597 596 0
-597 19 0
598 -927 -595 0
-598 927 0
-598 595 0
599 -25 -703 0
-599 25 0
-599 703 0
600 -599 -700 0
-600 599 0
-600 700 0
601 -928 -598 0
-601 928 0
-601 598 0
602 -42 -699 0
-602 42 0
-602 699 0
603 -602 -22 0
-603 602 0
-603 22 0
604 -929 -601 0
-604 929 0
-604 601 0
605 -25 -6 0
-605 25 0
-605 6 0
606 -605 -769 0
-606 605 0
-606 769 0
607 -930 -604 0
-607 930 0
-607 604 0
608 -41 -15 0
-608 41 0
-608 15 0
609 -608 -744 0
-609 608 0
-609 744 0
610 -931 -607 0
-610 931 0
-610 607 0
611 -775 -869 0
-611 775 0
-611 869 0
612 -611 -5 0
-612 611 0
-612 5 0
613 -932 -610 0
-613 932 0
-613 610 0
614 -737 -697 0
-614 737 0
-614 697 0
615 -614 -781 0
-615 614 0
-615 781 0
616 -933 -613 0
-616 933 0
-616 613 0
617 -826 -13 0
-617 826 0
-617 13 0
618 -617 -21 0
-618 617 0
-618 21 0
619 -934 -616 0
-619 934 0
-619 616 0
620 -34 -30 0
-620 34 0
-620 30 0
621 -620 -744 0
-621 620 0
-621 744 0
622 -935 -619 0
-622 935 0
-622 619 0
623 -710 -5 0
-623 710 0
-623 5 0
624 -623 -708 0
-624 623 0
-624 708 0
625 -936 -622 0
-625 936 0
-625 622 0
626 -428 -700 0
-626 428 0
-626 700 0
627 -937 -625 0
-627 937 0
-627 625 0
628 -47 -13 0
-628 47 0
-628 13 0
629 -628 -39 0
-629 628 0
-629 39 0
630 -938 -627 0
-630 938 0
-630 627 0
631 -38 -730 0
-631 38 0
-631 730 0
632 -631 -747 0
-632 631 0
-632 747 0
633 -939 -630 0
-633 939 0
-633 630 0
634 -44 -23 0
-634 44 0
-634 23 0
635 -634 -14 0
-635 634 0
-635 14 0
636 -940 -633 0
-636 940 0
-636 633 0
637 -775 -702 0
-637 775 0
-637 702 0
638 -637 -44 0
-638 637 0
-638 44 0
639 -941 -636 0
-639 941 0
-639 636 0
640 -41 -21 0
-640 41 0
-640 21 0
641 -640 -693 0
-641 640 0
-641 693 0
642 -942 -639 0
-642 942 0
-642 639 0
643 -775 -774 0
-643 775 0
-643 774 0
644 -643 -826 0
-644 643 0
-644 826 0
645 -943 -642 0
-645 943 0
-645 642 0
646 -101 -734 0
-646 101 0
-646 734 0
647 -944 -645 0
-647 944 0
-647 645 0
648 -32 -729 0
-648 32 0
-648 729 0
649 -648 -21 0
-649 648 0
-649 21 0
650 -945 -647 0
-650 945 0
-650 647 0
651 -26 -733 0
-651 26 0
-651 733 0
652 -651 -826 0
-652 651 0
-652 826 0
653 -946 -650 0
-653 946 0
-653 650 0
654 -769 -696 0
-654 769 0
-654 696 0
655 -654 -744 0
-655 654 0
-655 744 0
656 -947 -653 0
-656 947 0
-656 653 0
657 -747 -21 0
-657 747 0
-657 21 0
658 -657 -700 0
-658 657 0
-658 700 0
659 -948 -656 0
-659 948 0
-659 656 0
660 -212 -23 0
-660 212 0
-660 23 0
661 -949 -659 0
-661 949 0
-661 659 0
662 -14 -727 0
-662 14 0
-662 727 0
663 -662 -10 0
-663 662 0
-663 10 0
664 -950 -661 0
-664 950 0
-664 661 0
665 -781 -734 0
-665 781 0
-665 734 0
666 -665 -713 0
-666 665 0
-666 713 0
667 -951 -664 0
-667 951 0
-667 664 0
668 -791 -696 0
-668 791 0
-668 696 0
669 -668 -734 0
-669 668 0
-669 734 0
670 -952 -667 0
-670 952 0
-670 667 0
671 -25 -699 0
-671 25 0
-671 699 0
672 -671 -713 0
-672 671 0
-672 713 0
673 -953 -670 0
-673 953 0
-673 670 0
674 -744 -3 0
-674 744 0
-674 3 0
675 -674 -10 0
-675 674 0
-675 10 0
676 -954 -673 0
-676 954 0
-676 673 0
677 -769 -17 0
-677 769 0
-677 17 0
678 -677 -4 0
-678 677 0
-678 4 0
679 -955 -676 0
-679 955 0
-679 676 0
680 -30 -692 0
-680 30 0
-680 692 0
681 -680 -39 0
-681 680 0
-681 39 0
682 -956 -679 0
-682 956 0
-682 679 0
683 -39 -22 0
-683 39 0
-683 22 0
684 -683 -777 0
-684 683 0
-684 777 0
685 -957 -682 0
-685 957 0
-685 682 0
686 -40 -722 0
-686 40 0
-686 722 0
687 -686 -713 0
-687 686 0
-687 713 0
688 -958 -685 0
-688 958 0
-688 685 0
689 -9 -692 0
-689 9 0
-689 692 0
690 -689 -708 0
-690 689 0
-690 708 0
691 -959 -688 0
-691 959 0
-691 688 0
-692 -2 0
692 2 0
-693 -5 0
693 5 0
-694 -54 0
694 54 0
-695 -52 0
695 52 0
-696 -7 0
696 7 0
-697 -6 0
697 6 0
-698 -57 0
698 57 0
-699 -9 0
699 9 0
-700 -10 0
700 10 0
-701 -60 0
701 60 0
-702 -12 0
702 12 0
-703 -11 0
703 11 0
-704 -63 0
704 63 0
-705 -4 0
705 4 0
-706 -66 0
706 66 0
-707 -69 0
707 69 0
-708 -19 0
708 19 0
-709 -72 0
709 72 0
-710 -21 0
710 21 0
-711 -20 0
711 20 0
-712 -75 0
712 75 0
-713 -16 0
713 16 0
-714 -78 0
714 78 0
-715 -81 0
715 81 0
-716 -26 0
716 26 0
-717 -84 0
717 84 0
-718 -87 0
718 87 0
-719 -1 0
719 1 0
-720 -23 0
720 23 0
-721 -90 0
721 90 0
-722 -30 0
722 30 0
-723 -31 0
723 31 0
-724 -93 0
724 93 0
-725 -33 0
725 33 0
-726 -96 0
726 96 0
-727 -8 0
727 8 0
-728 -99 0
728 99 0
-729 -25 0
729 25 0
-730 -13 0
730 13 0
-731 -102 0
731 102 0
-732 -35 0
732 35 0
-733 -22 0
733 22 0
-734 -36 0
734 36 0
-735 -105 0
735 105 0
-736 -108 0
736 108 0
-737 -38 0
737 38 0
-738 -111 0
738 111 0
-739 -39 0
739 39 0
-740 -114 0
740 114 0
-741 -41 0
741 41 0
-742 -117 0
742 117 0
-743 -120 0
743 120 0
-744 -43 0
744 43 0
-745 -123 0
745 123 0
-746 -45 0
746 45 0
-747 -44 0
747 44 0
-748 -126 0
748 126 0
-749 -129 0
749 129 0
-750 -132 0
750 132 0
-751 -135 0
751 135 0
-752 -138 0
752 138 0
-753 -141 0
753 141 0
-754 -144 0
754 144 0
-755 -17 0
755 17 0
-756 -147 0
756 147 0
-757 -150 0
757 150 0
-758 -153 0
758 153 0
-759 -156 0
759 156 0
-760 -159 0
760 159 0
-761 -162 0
761 162 0
-762 -165 0
762 165 0
-763 -34 0
763 34 0
-764 -168 0
764 168 0
-765 -29 0
765 29 0
-766 -171 0
766 171 0
-767 -15 0
767 15 0
-768 -174 0
768 174 0
-769 -46 0
769 46 0
-770 -177 0
770 177 0
-771 -180 0
771 180 0
-772 -18 0
772 18 0
-773 -183 0
773 183 0
-774 -24 0
774 24 0
-775 -49 0
775 49 0
-776 -186 0
776 186 0
-777 -50 0
777 50 0
-778 -189 0
778 189 0
-779 -192 0
779 192 0
-780 -195 0
780 195 0
-781 -37 0
781 37 0
-782 -198 0
782 198 0
-783 -28 0
783 28 0
-784 -201 0
784 201 0
-785 -47 0
785 47 0
-786 -204 0
786 204 0
-787 -207 0
787 207 0
-788 -210 0
788 210 0
-789 -213 0
789 213 0
-790 -216 0
790 216 0
-791 -27 0
791 27 0
-792 -219 0
792 219 0
-793 -222 0
793 222 0
-794 -225 0
794 225 0
-795 -228 0
795 228 0
-796 -231 0
796 231 0
-797 -234 0
797 234 0
-798 -237 0
798 237 0
-799 -240 0
799 240 0
-800 -243 0
800 243 0
-801 -246 0
801 246 0
-802 -32 0
802 32 0
-803 -249 0
803 249 0
-804 -252 0
804 252 0
-805 -255 0
805 255 0
-806 -258 0
806 258 0
-807 -261 0
807 261 0
-808 -264 0
808 264 0
-809 -267 0
809 267 0
-810 -269 0
810 269 0
-811 -272 0
811 272 0
-812 -275 0
812 275 0
-813 -278 0
813 278 0
-814 -281 0
814 281 0
-815 -284 0
815 284 0
-816 -287 0
816 287 0
-817 -290 0
817 290 0
-818 -293 0
818 293 0
-819 -296 0
819 296 0
-820 -299 0
820 299 0
-821 -301 0
821 301 0
-822 -304 0
822 304 0
-823 -307 0
823 307 0
-824 -310 0
824 310 0
-825 -313 0
825 313 0
-826 -14 0
826 14 0
-827 -316 0
827 316 0
-828 -319 0
828 319 0
-829 -322 0
829 322 0
-830 -325 0
830 325 0
-831 -3 0
831 3 0
-832 -328 0
832 328 0
-833 -331 0
833 331 0
-834 -333 0
834 333 0
-835 -336 0
835 336 0
-836 -339 0
836 339 0
-837 -342 0
837 342 0
-838 -48 0
838 48 0
-839 -345 0
839 345 0
-840 -40 0
840 40 0
-841 -348 0
841 348 0
-842 -351 0
842 351 0
-843 -354 0
843 354 0
-844 -356 0
844 356 0
-845 -359 0
845 359 0
-846 -362 0
846 362 0
-847 -365 0
847 365 0
-848 -368 0
848 368 0
-849 -371 0
849 371 0
-850 -373 0
850 373 0
-851 -376 0
851 376 0
-852 -379 0
852 379 0
-853 -382 0
853 382 0
-854 -385 0
854 385 0
-855 -388 0
855 388 0
-856 -391 0
856 391 0
-857 -394 0
857 394 0
-858 -397 0
858 397 0
-859 -400 0
859 400 0
-860 -403 0
860 403 0
-861 -406 0
861 406 0
-862 -409 0
862 409 0
-863 -412 0
863 412 0
-864 -415 0
864 415 0
-865 -417 0
865 417 0
-866 -420 0
866 420 0
-867 -423 0
867 423 0
-868 -426 0
868 426 0
-869 -42 0
869 42 0
-870 -429 0
870 429 0
-871 -432 0
871 432 0
-872 -435 0
872 435 0
-873 -438 0
873 438 0
-874 -441 0
874 441 0
-875 -444 0
875 444 0
-876 -447 0
876 447 0
-877 -450 0
877 450 0
-878 -453 0
878 453 0
-879 -456 0
879 456 0
-880 -459 0
880 459 0
-881 -462 0
881 462 0
-882 -465 0
882 465 0
-883 -468 0
883 468 0
-884 -471 0
884 471 0
-885 -474 0
885 474 0
-886 -477 0
886 477 0
-887 -480 0
887 480 0
-888 -483 0
888 483 0
-889 -486 0
889 486 0
-890 -489 0
890 489 0
-891 -492 0
891 492 0
-892 -495 0
892 495 0
-893 -498 0
893 498 0
-894 -501 0
894 501 0
-895 -504 0
895 504 0
-896 -507 0
896 507 0
-897 -510 0
897 510 0
-898 -513 0
898 513 0
-899 -516 0
899 516 0
-900 -519 0
900 519 0
-901 -522 0
901 522 0
-902 -525 0
902 525 0
-903 -528 0
903 528 0
-904 -530 0
904 530 0
-905 -533 0
905 533 0
-906 -536 0
906 536 0
-907 -539 0
907 539 0
-908 -542 0
908 542 0
-909 -545 0
909 545 0
-910 -548 0
910 548 0
-911 -551 0
911 551 0
-912 -554 0
912 554 0
-913 -557 0
913 557 0
-914 -559 0
914 559 0
-915 -562 0
915 562 0
-916 -565 0
916 565 0
-917 -568 0
917 568 0
-918 -571 0
918 571 0
-919 -574 0
919 574 0
-920 -577 0
920 577 0
-921 -580 0
921 580 0
-922 -583 0
922 583 0
-923 -586 0
923 586 0
-924 -588 0
924 588 0
-925 -591 0
925 591 0
-926 -594 0
926 594 0
-927 -597 0
927 597 0
-928 -600 0
928 600 0
-929 -603 0
929 603 0
-930 -606 0
930 606 0
-931 -609 0
931 609 0
-932 -612 0
932 612 0
-933 -615 0
933 615 0
-934 -618 0
934 618 0
-935 -621 0
935 621 0
-936 -624 0
936 624 0
-937 -626 0
937 626 0
-938 -629 0
938 629 0
-939 -632 0
939 632 0
-940 -635 0
940 635 0
-941 -638 0
941 638 0
-942 -641 0
942 641 0
-943 -644 0
943 644 0
-944 -646 0
944 646 0
-945 -649 0
945 649 0
-946 -652 0
946 652 0
-947 -655 0
947 655 0
-948 -658 0
948 658 0
-949 -660 0
949 660 0
-950 -663 0
950 663 0
-951 -666 0
951 666 0
-952 -669 0
952 669 0
-953 -672 0
953 672 0
-954 -675 0
954 675 0
-955 -678 0
955 678 0
-956 -681 0
956 681 0
-957 -684 0
957 684 0
-958 -687 0
958 687 0
-959 -690 0
959 690 0
691 0
